p edge 100 992
e 1 5
e 1 6
e 1 8
e 1 9
e 1 13
e 1 20
e 1 25
e 1 34
e 1 39
e 1 40
e 1 42
e 1 47
e 1 54
e 1 55
e 1 57
e 1 60
e 1 70
e 1 73
e 1 74
e 1 76
e 1 77
e 1 80
e 1 81
e 1 84
e 1 90
e 1 92
e 1 93
e 2 4
e 2 9
e 2 15
e 2 24
e 2 25
e 2 26
e 2 28
e 2 32
e 2 34
e 2 39
e 2 42
e 2 44
e 2 57
e 2 63
e 2 64
e 2 70
e 2 74
e 2 80
e 2 81
e 2 84
e 2 88
e 2 89
e 2 91
e 2 92
e 2 99
e 2 100
e 3 5
e 3 12
e 3 22
e 3 28
e 3 32
e 3 36
e 3 40
e 3 53
e 3 57
e 3 61
e 3 63
e 3 71
e 3 72
e 3 76
e 3 78
e 3 86
e 3 87
e 3 99
e 4 22
e 4 25
e 4 27
e 4 29
e 4 31
e 4 32
e 4 33
e 4 34
e 4 38
e 4 42
e 4 43
e 4 49
e 4 50
e 4 51
e 4 53
e 4 59
e 4 60
e 4 66
e 4 70
e 4 82
e 4 94
e 4 96
e 5 7
e 5 9
e 5 23
e 5 29
e 5 32
e 5 38
e 5 40
e 5 45
e 5 46
e 5 49
e 5 53
e 5 56
e 5 57
e 5 58
e 5 71
e 5 78
e 5 84
e 5 90
e 5 92
e 5 95
e 5 96
e 6 7
e 6 11
e 6 21
e 6 25
e 6 39
e 6 45
e 6 47
e 6 49
e 6 54
e 6 56
e 6 64
e 6 66
e 6 67
e 6 76
e 6 77
e 6 79
e 6 86
e 6 87
e 6 91
e 7 10
e 7 12
e 7 15
e 7 19
e 7 20
e 7 26
e 7 34
e 7 35
e 7 38
e 7 47
e 7 49
e 7 55
e 7 61
e 7 69
e 7 70
e 7 71
e 7 73
e 7 76
e 7 77
e 7 82
e 7 84
e 7 92
e 7 93
e 7 100
e 8 11
e 8 12
e 8 15
e 8 19
e 8 20
e 8 23
e 8 27
e 8 32
e 8 34
e 8 38
e 8 43
e 8 57
e 8 60
e 8 62
e 8 65
e 8 66
e 8 82
e 8 84
e 8 88
e 8 95
e 9 12
e 9 16
e 9 20
e 9 22
e 9 25
e 9 30
e 9 31
e 9 32
e 9 34
e 9 44
e 9 46
e 9 57
e 9 61
e 9 64
e 9 67
e 9 75
e 9 81
e 9 85
e 9 86
e 9 97
e 10 14
e 10 17
e 10 18
e 10 22
e 10 26
e 10 27
e 10 36
e 10 40
e 10 50
e 10 52
e 10 54
e 10 55
e 10 56
e 10 64
e 10 66
e 10 69
e 10 76
e 10 97
e 10 98
e 10 99
e 11 21
e 11 28
e 11 30
e 11 43
e 11 45
e 11 46
e 11 53
e 11 57
e 11 61
e 11 65
e 11 84
e 11 91
e 12 17
e 12 20
e 12 23
e 12 37
e 12 38
e 12 39
e 12 50
e 12 58
e 12 60
e 12 64
e 12 66
e 12 68
e 12 78
e 12 80
e 12 81
e 12 83
e 12 93
e 12 96
e 13 16
e 13 20
e 13 21
e 13 24
e 13 27
e 13 28
e 13 39
e 13 43
e 13 47
e 13 51
e 13 59
e 13 64
e 13 71
e 13 79
e 13 81
e 13 89
e 14 18
e 14 19
e 14 23
e 14 26
e 14 30
e 14 31
e 14 36
e 14 43
e 14 53
e 14 58
e 14 63
e 14 69
e 14 71
e 14 78
e 14 81
e 14 85
e 14 94
e 15 21
e 15 29
e 15 34
e 15 36
e 15 48
e 15 51
e 15 55
e 15 58
e 15 60
e 15 61
e 15 62
e 15 63
e 15 64
e 15 89
e 15 91
e 15 93
e 15 100
e 16 17
e 16 23
e 16 31
e 16 45
e 16 47
e 16 50
e 16 51
e 16 52
e 16 75
e 16 84
e 16 92
e 16 93
e 16 99
e 17 21
e 17 31
e 17 36
e 17 37
e 17 38
e 17 40
e 17 42
e 17 44
e 17 48
e 17 50
e 17 54
e 17 57
e 17 60
e 17 66
e 17 67
e 17 69
e 17 71
e 17 72
e 17 76
e 17 81
e 17 82
e 17 85
e 17 90
e 18 27
e 18 28
e 18 29
e 18 32
e 18 41
e 18 48
e 18 51
e 18 54
e 18 60
e 18 74
e 18 78
e 18 82
e 18 97
e 18 100
e 19 20
e 19 26
e 19 27
e 19 43
e 19 44
e 19 47
e 19 51
e 19 69
e 19 72
e 19 82
e 19 90
e 19 93
e 19 97
e 20 23
e 20 28
e 20 30
e 20 31
e 20 34
e 20 43
e 20 48
e 20 50
e 20 51
e 20 56
e 20 58
e 20 60
e 20 62
e 20 68
e 20 70
e 20 72
e 20 76
e 20 78
e 20 85
e 20 92
e 20 93
e 20 95
e 20 98
e 21 26
e 21 32
e 21 34
e 21 40
e 21 42
e 21 44
e 21 49
e 21 51
e 21 59
e 21 65
e 21 66
e 21 70
e 21 72
e 21 78
e 21 85
e 21 89
e 21 93
e 21 94
e 22 24
e 22 31
e 22 37
e 22 38
e 22 54
e 22 56
e 22 60
e 22 69
e 22 71
e 22 78
e 22 79
e 22 86
e 22 87
e 22 98
e 22 99
e 23 27
e 23 28
e 23 31
e 23 32
e 23 45
e 23 65
e 23 71
e 23 74
e 23 75
e 23 79
e 23 81
e 23 83
e 23 85
e 23 93
e 23 96
e 23 98
e 23 99
e 24 26
e 24 30
e 24 32
e 24 35
e 24 46
e 24 53
e 24 55
e 24 59
e 24 61
e 24 63
e 24 65
e 24 67
e 24 72
e 24 74
e 24 76
e 24 82
e 24 86
e 24 89
e 24 97
e 24 98
e 24 99
e 25 29
e 25 31
e 25 67
e 25 69
e 25 70
e 25 71
e 25 83
e 25 90
e 25 97
e 26 31
e 26 32
e 26 37
e 26 40
e 26 44
e 26 51
e 26 52
e 26 53
e 26 59
e 26 61
e 26 63
e 26 65
e 26 69
e 26 73
e 26 74
e 26 76
e 26 78
e 26 79
e 26 87
e 26 90
e 26 92
e 26 97
e 27 31
e 27 42
e 27 45
e 27 50
e 27 58
e 27 84
e 27 89
e 28 34
e 28 39
e 28 45
e 28 49
e 28 51
e 28 55
e 28 69
e 28 72
e 29 31
e 29 36
e 29 39
e 29 41
e 29 42
e 29 47
e 29 51
e 29 54
e 29 70
e 29 76
e 29 85
e 29 86
e 29 95
e 30 31
e 30 42
e 30 43
e 30 48
e 30 53
e 30 56
e 30 61
e 30 70
e 30 72
e 30 78
e 30 81
e 30 87
e 30 88
e 30 91
e 30 94
e 30 97
e 31 47
e 31 48
e 31 52
e 31 58
e 31 61
e 31 65
e 31 84
e 31 85
e 31 86
e 31 91
e 31 96
e 32 36
e 32 39
e 32 40
e 32 44
e 32 45
e 32 50
e 32 52
e 32 55
e 32 61
e 32 75
e 32 88
e 32 89
e 32 90
e 32 91
e 33 39
e 33 42
e 33 48
e 33 57
e 33 59
e 33 61
e 33 65
e 33 67
e 33 73
e 33 75
e 33 86
e 33 92
e 33 98
e 34 38
e 34 55
e 34 61
e 34 64
e 34 65
e 34 73
e 34 82
e 34 86
e 34 90
e 34 91
e 34 94
e 34 99
e 35 41
e 35 45
e 35 50
e 35 52
e 35 56
e 35 59
e 35 61
e 35 67
e 35 75
e 35 82
e 35 84
e 35 88
e 35 90
e 35 94
e 36 47
e 36 57
e 36 70
e 36 76
e 36 86
e 36 91
e 36 95
e 36 97
e 37 41
e 37 47
e 37 58
e 37 66
e 37 70
e 37 75
e 37 82
e 37 83
e 37 85
e 37 86
e 37 94
e 37 96
e 38 55
e 38 60
e 38 63
e 38 64
e 38 69
e 38 79
e 39 44
e 39 60
e 39 67
e 39 73
e 39 75
e 39 80
e 39 81
e 40 45
e 40 50
e 40 62
e 40 64
e 40 68
e 40 81
e 40 83
e 40 84
e 40 87
e 40 90
e 40 91
e 40 94
e 41 60
e 41 66
e 41 69
e 41 78
e 41 79
e 41 82
e 41 87
e 41 89
e 41 95
e 41 96
e 41 99
e 42 43
e 42 50
e 42 51
e 42 52
e 42 53
e 42 55
e 42 60
e 42 63
e 42 66
e 42 67
e 42 73
e 42 75
e 42 86
e 42 88
e 42 95
e 42 100
e 43 45
e 43 57
e 43 61
e 43 65
e 43 68
e 43 73
e 43 74
e 43 76
e 43 78
e 43 80
e 43 86
e 43 96
e 44 64
e 44 71
e 44 75
e 44 80
e 44 87
e 44 88
e 44 92
e 44 99
e 45 46
e 45 49
e 45 52
e 45 53
e 45 58
e 45 59
e 45 61
e 45 66
e 45 70
e 45 79
e 45 80
e 45 82
e 45 86
e 45 88
e 45 90
e 45 97
e 45 98
e 45 99
e 46 49
e 46 52
e 46 56
e 46 57
e 46 64
e 46 69
e 46 92
e 47 52
e 47 61
e 47 62
e 47 63
e 47 66
e 47 71
e 47 77
e 47 80
e 47 97
e 47 99
e 48 50
e 48 63
e 48 64
e 48 71
e 48 74
e 48 77
e 48 82
e 48 93
e 49 51
e 49 73
e 49 75
e 49 87
e 49 92
e 49 94
e 49 98
e 50 51
e 50 54
e 50 60
e 50 72
e 50 84
e 50 91
e 50 96
e 51 56
e 51 60
e 51 63
e 51 66
e 51 69
e 51 70
e 51 76
e 51 77
e 51 82
e 51 84
e 51 92
e 52 54
e 52 67
e 52 69
e 52 71
e 52 73
e 52 76
e 52 86
e 52 89
e 53 54
e 53 65
e 53 66
e 53 67
e 53 69
e 53 72
e 53 75
e 53 76
e 53 87
e 53 88
e 53 90
e 53 91
e 53 94
e 53 96
e 54 63
e 54 64
e 54 66
e 54 76
e 54 78
e 54 80
e 54 85
e 55 57
e 55 62
e 55 63
e 55 66
e 55 68
e 55 86
e 55 89
e 55 97
e 56 62
e 56 64
e 56 66
e 56 70
e 56 72
e 56 82
e 56 90
e 56 93
e 57 58
e 57 62
e 57 66
e 57 74
e 57 85
e 57 89
e 57 90
e 57 91
e 57 92
e 57 95
e 57 97
e 58 63
e 58 66
e 58 73
e 58 74
e 58 82
e 58 85
e 58 95
e 58 98
e 59 60
e 59 66
e 59 77
e 59 86
e 59 88
e 59 95
e 59 98
e 59 99
e 60 61
e 60 62
e 60 68
e 60 69
e 60 74
e 60 79
e 60 81
e 60 90
e 61 68
e 61 69
e 61 72
e 61 75
e 61 80
e 61 84
e 61 86
e 61 93
e 61 95
e 61 97
e 61 99
e 62 63
e 62 72
e 62 79
e 62 81
e 62 82
e 62 84
e 62 85
e 62 88
e 63 74
e 63 75
e 63 78
e 63 83
e 63 86
e 63 87
e 63 88
e 63 89
e 63 90
e 64 66
e 64 76
e 64 77
e 64 88
e 65 70
e 65 79
e 65 83
e 65 84
e 65 92
e 66 68
e 66 73
e 66 81
e 66 88
e 66 89
e 66 92
e 67 69
e 67 70
e 67 81
e 67 86
e 67 88
e 68 76
e 68 85
e 68 87
e 68 95
e 69 73
e 69 75
e 69 77
e 69 81
e 69 95
e 70 71
e 70 77
e 70 85
e 70 86
e 70 92
e 70 95
e 71 75
e 71 84
e 71 85
e 71 88
e 71 91
e 71 96
e 71 98
e 72 80
e 72 87
e 73 75
e 73 76
e 73 85
e 73 88
e 73 98
e 73 100
e 74 78
e 74 80
e 74 82
e 74 88
e 74 97
e 75 79
e 75 96
e 75 98
e 75 99
e 76 84
e 76 86
e 76 88
e 76 93
e 76 95
e 76 99
e 77 82
e 77 84
e 77 86
e 77 96
e 77 100
e 78 82
e 78 83
e 78 95
e 78 98
e 78 99
e 79 89
e 79 90
e 79 95
e 79 98
e 80 90
e 80 96
e 80 99
e 81 96
e 81 97
e 81 100
e 82 84
e 82 88
e 82 90
e 82 91
e 82 93
e 82 96
e 82 97
e 82 98
e 82 99
e 83 89
e 83 95
e 84 93
e 84 94
e 84 95
e 84 99
e 84 100
e 85 88
e 85 89
e 85 91
e 85 94
e 85 95
e 85 97
e 86 88
e 86 93
e 86 100
e 87 90
e 87 94
e 87 100
e 88 92
e 88 94
e 88 99
e 89 91
e 89 93
e 89 95
e 89 97
e 89 100
e 90 94
e 90 100
e 91 93
e 92 94
e 92 100
e 93 98
e 94 99
e 95 96
e 97 98
e 98 100
